p cnf 71 258
-3 2 0
-3 -1 0
-2 1 3 0
1 3 -4 0
-1 -3 -4 0
1 -3 4 0
-1 3 4 0
1 4 -5 0
-1 -4 -5 0
1 -4 5 0
-1 4 5 0
-1 -6 0
1 -6 0
-7 3 0
-7 -3 0
8 6 0
8 -7 0
-6 7 -8 0
-10 8 0
-10 -9 0
-8 9 10 0
12 10 0
12 11 0
-10 -11 -12 0
13 -5 0
13 12 0
5 -12 -13 0
14 -5 0
14 3 0
5 -3 -14 0
15 16 0
-15 16 0
-7 -17 -18 0
7 17 -18 0
-7 17 18 0
7 -17 18 0
-16 18 -19 0
16 -18 -19 0
-16 -18 19 0
16 18 19 0
7 20 0
-7 20 0
20 5 -21 0
-20 -5 -21 0
20 -5 21 0
-20 5 21 0
-22 -19 0
-22 21 0
19 -21 22 0
-23 14 0
-23 -22 0
-14 22 23 0
-17 -9 -24 0
17 9 -24 0
-17 9 24 0
17 -9 24 0
-25 23 0
-25 -24 0
-23 24 25 0
27 -11 0
27 26 0
11 -26 -27 0
-27 -28 -29 0
27 28 -29 0
-27 28 29 0
27 -28 29 0
30 3 -31 0
-30 -3 -31 0
30 -3 31 0
-30 3 31 0
28 30 -32 0
-28 -30 -32 0
28 -30 32 0
-28 30 32 0
-33 -31 0
-33 -32 0
31 32 33 0
34 -33 0
34 7 0
33 -7 -34 0
29 34 -35 0
-29 -34 -35 0
29 -34 35 0
-29 34 35 0
16 -7 -36 0
-16 7 -36 0
16 7 36 0
-16 -7 36 0
-38 36 0
-38 -37 0
-36 37 38 0
39 35 0
39 -38 0
-35 38 -39 0
40 25 0
40 39 0
-25 -39 -40 0
-41 3 0
-41 5 0
-3 -5 41 0
-42 -16 0
-42 4 0
16 -4 42 0
43 -16 0
43 -20 0
16 20 -43 0
-44 42 0
-44 43 0
-42 -43 44 0
32 -44 -45 0
-32 44 -45 0
32 44 45 0
-32 -44 45 0
15 11 -46 0
-15 -11 -46 0
15 -11 46 0
-15 11 46 0
47 -45 0
47 46 0
45 -46 -47 0
48 32 0
48 8 0
-32 -8 -48 0
49 48 0
49 10 0
-48 -10 -49 0
26 -49 -50 0
-26 49 -50 0
26 49 50 0
-26 -49 50 0
-51 -47 0
-51 -50 0
47 50 51 0
41 -51 -52 0
-41 51 -52 0
41 51 52 0
-41 -51 52 0
-40 -52 -53 0
40 52 -53 0
-40 52 53 0
40 -52 53 0
54 11 0
54 17 0
-11 -17 -54 0
55 28 0
55 54 0
-28 -54 -55 0
56 48 0
56 5 0
-48 -5 -56 0
57 48 0
57 -3 0
-48 3 -57 0
-58 -57 0
-58 -9 0
57 9 58 0
59 -11 0
59 57 0
11 -57 -59 0
60 58 0
60 59 0
-58 -59 -60 0
-61 56 0
-61 -60 0
-56 60 61 0
62 8 0
62 17 0
-8 -17 -62 0
-63 -17 0
-63 1 0
17 -1 63 0
-64 62 0
-64 -63 0
-62 63 64 0
-65 -8 0
-65 -64 0
8 64 65 0
-61 65 -66 0
61 -65 -66 0
-61 -65 66 0
61 65 66 0
55 -66 -67 0
-55 66 -67 0
55 66 67 0
-55 -66 67 0
-68 -53 0
-68 67 0
53 -67 68 0
69 13 0
69 -68 0
-13 68 -69 0
-70 -57 0
-70 64 0
57 -64 70 0
-69 70 -71 0
69 -70 -71 0
-69 -70 71 0
69 70 71 0
18 37 0
-59 61 -67 16 0
-71 68 -69 -1 0
45 64 -6 0
-9 39 -64 -31 0
26 -39 -57 -64 0
-26 6 1 9 0
58 23 49 -6 -41 16 0
-47 -3 43 0
32 -18 -1 27 4 -5 0
42 -55 0
55 60 67 37 -20 0
39 64 50 -31 -2 -41 0
-12 18 -21 -62 0
-70 -58 -15 62 -23 -13 0
-12 54 17 0
54 -47 0
-49 -33 -67 -30 -40 50 0
35 -42 0
-18 19 -53 52 16 35 0
-35 66 56 -13 -61 0
-14 41 47 -57 -9 0
-4 -20 5 0
41 27 -67 -20 60 0
32 -21 0
-51 -8 -54 -2 0
41 -22 51 15 -69 0
-37 12 0
-39 -68 0
2 -70 52 0
49 3 0
-36 -40 -69 42 -47 0
-8 9 -28 0
-45 30 66 -56 0
22 -65 -64 70 -19 -56 0
-43 17 2 -22 0
21 27 11 38 32 29 0
-52 33 0
53 -40 68 -54 0
-33 7 -68 19 10 0
65 54 0
59 -57 0
48 20 0
9 -1 -52 0
-34 58 -21 -69 40 0
1 -59 44 31 27 0
-51 32 2 55 70 0
66 67 0
-8 -41 -33 -55 25 0
7 -65 0
-23 -41 -24 7 0
46 63 -8 -38 -26 0
-25 -14 -40 20 0
4 -32 0
55 57 47 -24 27 42 0
20 -44 -31 -50 67 0
-55 -35 51 0
14 -41 61 0
58 57 48 0
71 0
